NAME : MM38_depots
COMMENT : Instance 38 in MD algorithm. Coordinates of depots and vhcl speeds given.
TYPE : TSP
DIMENSION : 6
EDGE_WEIGHT_TYPE : ATT
NODE_COORD_SECTION
201 94.7922 92.8879 1
202 94.7922 92.8879 1
203 45.2984 67.2717 1
204 45.2984 67.2717 1
205 81.0833 37.2332 1
206 81.0833 37.2332 1
EOF
